64
7
0 11 12 13 15 16 17 18 19 20 24 25 26 27 28 29 30 32 38 40 43 44 45 47 50 51 53 55 58 59 60 63
1 7 8 9 10 12 13 17 18 19 21 26 27 28 30 31 32 33 34 40 41 43 44 47 50 51 52 59 63
2 7 10 12 13 14 17 18 19 20 24 27 29 30 31 37 39 42 43 45 51 53 54 56 57 58 59 60 62 63
3 9 12 13 15 17 20 23 26 28 29 31 32 33 36 38 42 43 44 45 47 48 55 63
4 7 8 9 11 12 14 16 20 28 29 35 39 45 46 48 49 51 53 55 57 58 59 63
5 9 18 23 32 33 39 50 54 59 60 63
6 10 15 22 24 26 27 49 61
